
******************************************************************************
This program contains Ipopt, a library for large-scale nonlinear optimization.
 Ipopt is released as open source code under the Eclipse Public License (EPL).
         For more information visit http://projects.coin-or.org/Ipopt
******************************************************************************

This is Ipopt version 3.12.6, running with linear solver ma57.

Number of nonzeros in equality constraint Jacobian...:        0
Number of nonzeros in inequality constraint Jacobian.:     4000
Number of nonzeros in Lagrangian Hessian.............:        0

Total number of variables............................:        2
                     variables with only lower bounds:        0
                variables with lower and upper bounds:        0
                     variables with only upper bounds:        0
Total number of equality constraints.................:        0
Total number of inequality constraints...............:     2000
        inequality constraints with only lower bounds:     2000
   inequality constraints with lower and upper bounds:        0
        inequality constraints with only upper bounds:        0

iter    objective    inf_pr   inf_du lg(mu)  ||d||  lg(rg) alpha_du alpha_pr  ls
   0  5.0000000e-01 0.00e+00 9.99e-04  -1.0 0.00e+00    -  0.00e+00 0.00e+00   0
   1  4.4945917e-01 0.00e+00 1.00e-06  -1.0 9.45e-02    -  1.00e+00 1.00e+00f  1
   2  4.2974495e-01 0.00e+00 2.83e-08  -2.5 2.73e-02    -  1.00e+00 1.00e+00f  1
   3  4.8011659e-02 0.00e+00 1.53e-03  -3.8 3.83e-01    -  5.56e-01 1.00e+00f  1
   4 -8.5055480e-01 0.00e+00 1.20e-03  -3.8 9.49e-01    -  5.25e-01 1.00e+00f  1
   5 -9.6269848e-01 0.00e+00 4.96e-04  -5.7 2.77e-01    -  7.83e-01 5.29e-01f  1
   6 -9.6439178e-01 0.00e+00 1.89e-02  -5.7 1.24e-01    -  2.03e-02 5.09e-02f  1
   7 -9.6484891e-01 0.00e+00 1.96e-02  -5.7 1.21e-01    -  1.52e-02 1.43e-02f  1
   8 -9.6549788e-01 0.00e+00 1.85e-02  -5.7 1.25e-01    -  2.62e-02 1.99e-02f  1
   9 -9.6632153e-01 0.00e+00 1.73e-02  -5.7 1.25e-01    -  1.10e-02 2.54e-02f  1
iter    objective    inf_pr   inf_du lg(mu)  ||d||  lg(rg) alpha_du alpha_pr  ls
  10 -9.6717557e-01 0.00e+00 1.42e-01  -5.7 1.18e-01    -  4.18e-03 2.83e-02f  1
  11 -9.6805338e-01 0.00e+00 1.98e-01  -5.7 1.13e-01    -  5.14e-03 3.07e-02f  1
  12 -9.6884856e-01 0.00e+00 1.55e-01  -5.7 1.13e-01    -  7.21e-03 2.82e-02f  1
  13 -9.6960707e-01 0.00e+00 1.58e-01  -5.7 1.12e-01    -  7.65e-03 2.75e-02f  1
  14 -9.7037310e-01 0.00e+00 1.94e-01  -5.7 1.09e-01    -  7.36e-03 2.88e-02f  1
  15 -9.7113479e-01 0.00e+00 2.20e-01  -5.7 1.07e-01    -  7.48e-03 2.95e-02f  1
  16 -9.7188054e-01 0.00e+00 2.32e-01  -5.7 1.06e-01    -  7.77e-03 2.98e-02f  1
  17 -9.7261525e-01 0.00e+00 2.51e-01  -5.7 1.04e-01    -  7.91e-03 3.02e-02f  1
  18 -9.7334239e-01 0.00e+00 2.74e-01  -5.7 1.02e-01    -  8.02e-03 3.09e-02f  1
  19 -9.7405978e-01 0.00e+00 2.93e-01  -5.7 1.00e-01    -  8.19e-03 3.14e-02f  1
iter    objective    inf_pr   inf_du lg(mu)  ||d||  lg(rg) alpha_du alpha_pr  ls
  20 -9.7476697e-01 0.00e+00 3.11e-01  -5.7 9.85e-02    -  8.36e-03 3.20e-02f  1
  21 -9.7546471e-01 0.00e+00 3.31e-01  -5.7 9.67e-02    -  8.52e-03 3.25e-02f  1
  22 -9.7615285e-01 0.00e+00 3.50e-01  -5.7 9.50e-02    -  8.70e-03 3.31e-02f  1
  23 -9.7683132e-01 0.00e+00 3.69e-01  -5.7 9.32e-02    -  8.88e-03 3.38e-02f  1
  24 -9.7750022e-01 0.00e+00 3.87e-01  -5.7 9.15e-02    -  9.07e-03 3.44e-02f  1
  25 -9.7815951e-01 0.00e+00 4.06e-01  -5.7 8.99e-02    -  9.26e-03 3.50e-02f  1
  26 -9.7880906e-01 0.00e+00 4.24e-01  -5.7 8.82e-02    -  9.47e-03 3.57e-02f  1
  27 -9.7944898e-01 0.00e+00 4.42e-01  -5.7 8.66e-02    -  9.68e-03 3.64e-02f  1
  28 -9.8007931e-01 0.00e+00 4.60e-01  -5.7 8.50e-02    -  9.90e-03 3.71e-02f  1
  29 -9.8069991e-01 0.00e+00 4.77e-01  -5.7 8.34e-02    -  1.01e-02 3.78e-02f  1
iter    objective    inf_pr   inf_du lg(mu)  ||d||  lg(rg) alpha_du alpha_pr  ls
  30 -9.8131074e-01 0.00e+00 4.95e-01  -5.7 8.18e-02    -  1.04e-02 3.85e-02f  1
  31 -9.8191215e-01 0.00e+00 5.13e-01  -5.7 8.03e-02    -  1.06e-02 3.93e-02f  1
  32 -9.8250356e-01 0.00e+00 5.29e-01  -5.7 7.87e-02    -  1.09e-02 4.00e-02f  1
  33 -9.8308555e-01 0.00e+00 5.46e-01  -5.7 7.72e-02    -  1.11e-02 4.08e-02f  1
  34 -9.8365753e-01 0.00e+00 5.63e-01  -5.7 7.57e-02    -  1.14e-02 4.16e-02f  1
  35 -9.8422009e-01 0.00e+00 5.80e-01  -5.7 7.42e-02    -  1.17e-02 4.25e-02f  1
  36 -9.8477267e-01 0.00e+00 5.95e-01  -5.7 7.28e-02    -  1.20e-02 4.33e-02f  1
  37 -9.8531566e-01 0.00e+00 6.12e-01  -5.7 7.13e-02    -  1.23e-02 4.42e-02f  1
  38 -9.8584886e-01 0.00e+00 6.27e-01  -5.7 6.99e-02    -  1.26e-02 4.51e-02f  1
  39 -9.8637234e-01 0.00e+00 6.43e-01  -5.7 6.84e-02    -  1.29e-02 4.61e-02f  1
iter    objective    inf_pr   inf_du lg(mu)  ||d||  lg(rg) alpha_du alpha_pr  ls
  40 -9.8688599e-01 0.00e+00 6.58e-01  -5.7 6.70e-02    -  1.33e-02 4.70e-02f  1
  41 -9.8738998e-01 0.00e+00 6.73e-01  -5.7 6.56e-02    -  1.36e-02 4.80e-02f  1
  42 -9.8788416e-01 0.00e+00 6.88e-01  -5.7 6.43e-02    -  1.40e-02 4.91e-02f  1
  43 -9.8836854e-01 0.00e+00 7.03e-01  -5.7 6.29e-02    -  1.44e-02 5.01e-02f  1
  44 -9.8884306e-01 0.00e+00 7.17e-01  -5.7 6.15e-02    -  1.48e-02 5.12e-02f  1
  45 -9.8930800e-01 0.00e+00 7.32e-01  -5.7 6.02e-02    -  1.52e-02 5.24e-02f  1
  46 -9.8976291e-01 0.00e+00 7.44e-01  -5.7 5.89e-02    -  1.56e-02 5.36e-02f  1
  47 -9.9020814e-01 0.00e+00 7.59e-01  -5.7 5.75e-02    -  1.61e-02 5.48e-02f  1
  48 -9.9064352e-01 0.00e+00 7.72e-01  -5.7 5.62e-02    -  1.66e-02 5.61e-02f  1
  49 -9.9106910e-01 0.00e+00 7.85e-01  -5.7 5.49e-02    -  1.71e-02 5.74e-02f  1
iter    objective    inf_pr   inf_du lg(mu)  ||d||  lg(rg) alpha_du alpha_pr  ls
  50 -9.9148480e-01 0.00e+00 7.98e-01  -5.7 5.36e-02    -  1.76e-02 5.88e-02f  1
  51 -9.9189081e-01 0.00e+00 8.11e-01  -5.7 5.23e-02    -  1.81e-02 6.03e-02f  1
  52 -9.9228677e-01 0.00e+00 8.22e-01  -5.7 5.11e-02    -  1.87e-02 6.18e-02f  1
  53 -9.9267306e-01 0.00e+00 8.35e-01  -5.7 4.98e-02    -  1.93e-02 6.34e-02f  1
  54 -9.9304941e-01 0.00e+00 8.46e-01  -5.7 4.85e-02    -  1.99e-02 6.50e-02f  1
  55 -9.9341596e-01 0.00e+00 8.58e-01  -5.7 4.73e-02    -  2.06e-02 6.67e-02f  1
  56 -9.9377258e-01 0.00e+00 8.69e-01  -5.7 4.60e-02    -  2.13e-02 6.85e-02f  1
  57 -9.9411942e-01 0.00e+00 8.80e-01  -5.7 4.48e-02    -  2.20e-02 7.05e-02f  1
  58 -9.9445628e-01 0.00e+00 8.90e-01  -5.7 4.36e-02    -  2.28e-02 7.24e-02f  1
  59 -9.9478333e-01 0.00e+00 9.01e-01  -5.7 4.23e-02    -  2.36e-02 7.46e-02f  1
iter    objective    inf_pr   inf_du lg(mu)  ||d||  lg(rg) alpha_du alpha_pr  ls
  60 -9.9510055e-01 0.00e+00 9.11e-01  -5.7 4.11e-02    -  2.44e-02 7.68e-02f  1
  61 -9.9540772e-01 0.00e+00 9.19e-01  -5.7 3.99e-02    -  2.53e-02 7.91e-02f  1
  62 -9.9570513e-01 0.00e+00 9.30e-01  -5.7 3.87e-02    -  2.63e-02 8.17e-02f  1
  63 -9.9599258e-01 0.00e+00 9.38e-01  -5.7 3.75e-02    -  2.73e-02 8.43e-02f  1
  64 -9.9627015e-01 0.00e+00 9.47e-01  -5.7 3.63e-02    -  2.84e-02 8.71e-02f  1
  65 -9.9653777e-01 0.00e+00 9.55e-01  -5.7 3.50e-02    -  2.96e-02 9.02e-02f  1
  66 -9.9679545e-01 0.00e+00 9.63e-01  -5.7 3.38e-02    -  3.09e-02 9.34e-02f  1
  67 -9.9704337e-01 0.00e+00 9.72e-01  -5.7 3.26e-02    -  3.22e-02 9.69e-02f  1
  68 -9.9728111e-01 0.00e+00 9.76e-01  -5.7 3.14e-02    -  3.37e-02 1.01e-01f  1
  69 -9.9750913e-01 0.00e+00 9.86e-01  -5.7 3.02e-02    -  3.52e-02 1.05e-01f  1
iter    objective    inf_pr   inf_du lg(mu)  ||d||  lg(rg) alpha_du alpha_pr  ls
  70 -9.9772713e-01 0.00e+00 9.91e-01  -5.7 2.90e-02    -  3.70e-02 1.09e-01f  1
  71 -9.9793506e-01 0.00e+00 9.95e-01  -5.7 2.78e-02    -  3.88e-02 1.14e-01f  1
  72 -9.9813345e-01 0.00e+00 1.01e+00  -5.7 2.66e-02    -  4.08e-02 1.19e-01f  1
  73 -9.9832125e-01 0.00e+00 1.00e+00  -5.7 2.54e-02    -  4.31e-02 1.24e-01f  1
  74 -9.9849971e-01 0.00e+00 1.01e+00  -5.7 2.41e-02    -  4.55e-02 1.31e-01f  1
  75 -9.9866805e-01 0.00e+00 1.01e+00  -5.7 2.29e-02    -  4.82e-02 1.38e-01f  1
  76 -9.9882562e-01 0.00e+00 1.01e+00  -5.7 2.17e-02    -  5.13e-02 1.45e-01f  1
  77 -9.9897538e-01 0.00e+00 1.04e+00  -5.7 2.04e-02    -  5.44e-02 1.57e-01f  1
  78 -9.9911207e-01 0.00e+00 9.87e-01  -5.7 1.93e-02    -  5.87e-02 1.62e-01f  1
  79 -9.9924072e-01 0.00e+00 1.03e+00  -5.7 1.80e-02    -  6.25e-02 1.76e-01f  1
iter    objective    inf_pr   inf_du lg(mu)  ||d||  lg(rg) alpha_du alpha_pr  ls
  80 -9.9936305e-01 0.00e+00 1.09e+00  -5.7 1.66e-02    -  6.75e-02 1.97e-01f  1
  81 -9.9946150e-01 0.00e+00 8.07e-01  -5.7 1.59e-02    -  7.54e-02 1.81e-01f  1
  82 -9.9957128e-01 0.00e+00 1.32e+00  -5.7 1.37e-02    -  7.68e-02 2.59e-01f  1
  83 -9.9966757e-01 0.00e+00 1.10e+00  -5.7 1.29e-02    -  9.15e-02 2.70e-01f  1
  84 -9.9970387e-01 0.00e+00 9.90e-01  -5.7 1.29e-02    -  1.16e-01 1.13e-01f  1
  85 -9.9981882e-01 0.00e+00 4.60e+00  -5.7 6.80e-03    -  7.68e-02 7.75e-01f  1
  86 -9.9989212e-01 0.00e+00 3.14e+00  -5.7 5.17e-03    -  1.67e-01 1.00e+00f  1
  87 -9.9993229e-01 0.00e+00 2.80e+00  -5.7 2.01e-02    -  4.07e-01 1.12e-01f  1
  88 -9.9996092e-01 0.00e+00 1.84e+00  -5.7 3.90e-03    -  1.43e-01 1.00e+00f  1
  89 -9.9997343e-01 0.00e+00 1.78e+00  -5.7 9.31e-03    -  4.98e-01 1.30e-01f  2
iter    objective    inf_pr   inf_du lg(mu)  ||d||  lg(rg) alpha_du alpha_pr  ls
  90 -9.9998489e-01 0.00e+00 1.36e+00  -5.7 6.10e-03    -  4.72e-01 2.82e-01f  2
  91 -9.9999218e-01 0.00e+00 8.43e-01  -5.7 5.06e-03    -  5.68e-01 3.66e-01f  2
  92 -9.9999639e-01 0.00e+00 7.27e-02  -5.7 2.97e-03    -  7.56e-01 1.00e+00f  1
  93 -9.9999356e-01 0.00e+00 1.84e-11  -5.7 1.01e-04    -  1.00e+00 1.00e+00f  1
  94 -1.0000010e+00 0.00e+00 8.19e-02  -8.6 9.47e-05    -  1.00e+00 5.50e-01f  1
  95 -1.0000012e+00 0.00e+00 4.08e-03  -8.6 1.76e-04    -  9.46e-01 9.49e-01f  1
  96 -1.0000012e+00 0.00e+00 2.51e-14  -8.6 2.44e-06    -  1.00e+00 1.00e+00f  1

Number of Iterations....: 96

                                   (scaled)                 (unscaled)
Objective...............:  -1.0000012387913120e+00   -1.0000012387913120e+00
Dual infeasibility......:   2.5091040356528538e-14    2.5091040356528538e-14
Constraint violation....:   0.0000000000000000e+00    0.0000000000000000e+00
Complementarity.........:   2.6636694979456560e-09    2.6636694979456560e-09
Overall NLP error.......:   2.6636694979456560e-09    2.6636694979456560e-09


Number of objective function evaluations             = 100
Number of objective gradient evaluations             = 97
Number of equality constraint evaluations            = 0
Number of inequality constraint evaluations          = 100
Number of equality constraint Jacobian evaluations   = 0
Number of inequality constraint Jacobian evaluations = 97
Number of Lagrangian Hessian evaluations             = 96
Total CPU secs in IPOPT (w/o function evaluations)   =      0.127
Total CPU secs in NLP function evaluations           =      0.027

EXIT: Optimal Solution Found.

************************ CUTEst statistics ************************


 Package used            :  IPOPT
 Problem                 :  SIPOW1M   
 # variables             =               2
 # constraints           =            2000
 # objective functions   =        0.1980000E+03
 # objective gradients   =        0.9800000E+02
 # objective Hessians    =        0.9700000E+02
 # Hessian-vector prdct  =        0.0000000E+00
 # constraints functions =        0.1990000E+03
 # constraints gradients =        0.9900000E+02
 # constraints Hessians  =        0.9700000E+02
 Exit code               =               0
 Final f                 =  -0.1000001E+01
 Set up time             =            0.02 seconds
 Solve time              =            0.38 seconds


******************************************************************

System Time =       0.1420000046 s.
